NAME : att48.tsp
TYPE : TOUR
DIMENSION : 48
TOUR_LENGTH : 35195.78042474832
TOUR_SECTION
1
8
9
38
31
44
18
7
28
6
37
19
27
17
43
30
36
46
33
20
12
15
40
22
16
3
11
23
14
25
13
47
21
32
39
48
5
42
24
10
45
35
4
26
2
29
34
41
-1
